\ LP format - for model browsing. Use MPS format to capture full model detail.
Minimize
  - 22 x[0,0] - 33 x[0,1] - 24 x[0,2] - 33 x[1,0] - 23 x[1,1] - 30 x[1,2]
   - 20 x[2,0] - 25 x[2,1] - 27 x[2,2]
Subject To
 SPcolumn3[0,0]: »[0] - À[0] <= 22
 SPcolumn3[0,1]: »[1] - À[0] <= 33
 SPcolumn3[0,2]: »[2] - À[0] <= 24
 SPcolumn3[1,0]: »[0] - À[1] <= 33
 SPcolumn3[1,1]: »[1] - À[1] <= 23
 SPcolumn3[1,2]: »[2] - À[1] <= 30
 SPcolumn3[2,0]: »[0] - À[2] <= 20
 SPcolumn3[2,1]: »[1] - À[2] <= 25
 SPcolumn3[2,2]: »[2] - À[2] <= 27
 SPcolumn4[2,2]: - x[2,2] >= 0
 SPcolumn5[0,0]: 55 ±[0,0] - »[0] + À[0] <= 33
 SPcolumn5[0,1]: 66 ±[0,1] - »[1] + À[0] <= 33
 SPcolumn5[0,2]: 57 ±[0,2] - »[2] + À[0] <= 33
 SPcolumn5[1,0]: 66 ±[1,0] - »[0] + À[1] <= 33
 SPcolumn5[1,1]: 56 ±[1,1] - »[1] + À[1] <= 33
 SPcolumn5[1,2]: 63 ±[1,2] - »[2] + À[1] <= 33
 SPcolumn5[2,0]: 50 ±[2,0] - »[0] + À[2] <= 30
 SPcolumn5[2,1]: 55 ±[2,1] - »[1] + À[2] <= 30
 SPcolumn5[2,2]: 57 ±[2,2] - »[2] + À[2] <= 30
 SPcolumn6[0]: - 33 ²[0] + »[0] <= 0
 SPcolumn6[1]: - 33 ²[1] + »[1] <= 0
 SPcolumn6[2]: - 27 ²[2] + »[2] <= 0
 SPcolumn8[0]: - 33 ³[0] + À[0] <= 0
 SPcolumn8[1]: - 33 ³[1] + À[1] <= 0
 SPcolumn8[2]: - 30 ³[2] + À[2] <= 0
 SP10: g[0] + g[1] <= 1.2
 SP11: g[0] + g[1] + g[2] <= 1.8
 SPcolumn1[0]: x[0,0] + x[0,1] + x[0,2] <= 252
 SPcolumn1[1]: x[1,0] + x[1,1] + x[1,2] <= 0
 SPcolumn1[2]: x[2,0] + x[2,1] + x[2,2] <= 520
 SPcolumn2[0]: x[0,0] + x[1,0] + x[2,0] >= 206
 SPcolumn2[1]: x[0,1] + x[1,1] + x[2,1] >= 314
 SPcolumn2[2]: x[0,2] + x[1,2] + x[2,2] >= 252
 SPcolumn7[0]: x[0,0] + x[1,0] + x[2,0] + 40 ²[0] <= 246
 SPcolumn7[1]: x[0,1] + x[1,1] + x[2,1] + 40 ²[1] <= 354
 SPcolumn7[2]: x[0,2] + x[1,2] + x[2,2] + 40 ²[2] <= 292
 SPcolumn9[0]: - x[0,0] - x[0,1] - x[0,2] + 252 ³[0] <= 0
 SPcolumn9[1]: - x[1,0] - x[1,1] - x[1,2] <= 0
 SPcolumn9[2]: - x[2,0] - x[2,1] - x[2,2] + 520 ³[2] <= 0
 SPcolumn4[0,0]: - x[0,0] + 246 ±[0,0] >= 0
 SPcolumn4[0,1]: - x[0,1] + 252 ±[0,1] >= 0
 SPcolumn4[0,2]: - x[0,2] + 252 ±[0,2] >= 0
 SPcolumn4[1,0]: - x[1,0] >= 0
 SPcolumn4[1,1]: - x[1,1] >= 0
 SPcolumn4[1,2]: - x[1,2] >= 0
 SPcolumn4[2,0]: - x[2,0] + 246 ±[2,0] >= 0
 SPcolumn4[2,1]: - x[2,1] + 314 ±[2,1] >= 0
 SPcolumn4[2,2]: - x[2,2] + 260 ±[2,2] >= 0
Bounds
 g[0] <= 1
 g[1] <= 1
 g[2] <= 1
Binaries
 ±[0,0] ±[0,1] ±[0,2] ±[1,0] ±[1,1] ±[1,2] ±[2,0] ±[2,1] ±[2,2] ²[0] ²[1]
 ²[2] ³[0] ³[1] ³[2]
End
